c Random generated cnf formula, satisfiable: false
p cnf 10 50
-3 -5 10 0
3 -1 9 0
-2 -6 10 0
1 -8 -4 0
6 -4 -2 0
4 -2 -7 0
2 10 6 0
6 -2 -1 0
2 6 -3 0
-3 5 -1 0
4 1 -2 0
-2 4 1 0
-5 7 -10 0
5 3 -8 0
-8 -10 -6 0
3 2 -1 0
-10 1 4 0
10 -5 7 0
-1 -6 4 0
-10 3 2 0
6 3 -1 0
-7 5 9 0
10 4 -3 0
7 -1 -6 0
10 4 2 0
-2 6 -10 0
-3 -5 -9 0
-3 -10 -8 0
-5 3 -10 0
8 10 2 0
4 1 -10 0
2 -5 1 0
3 2 -6 0
2 4 9 0
-4 -7 10 0
1 -10 5 0
3 2 6 0
3 -6 -5 0
10 -9 -5 0
10 -2 5 0
8 1 -4 0
-6 -10 -5 0
-7 -6 3 0
4 -9 1 0
10 6 -8 0
9 1 -6 0
-7 1 8 0
-6 1 2 0
4 8 -3 0
-1 3 9 0
